&CONTROL
 calculation = 'scf',                             ! type of calculation
 title = 'single energy calculation',             ! title for the job
 restart_mode = 'from_scratch',                   ! start from zero or restart a calculation
 outdir = './out',                                ! name of the directory where the output files are found
 pseudo_dir = './pseudo',                         ! name of the directory containing the pseudopotential files
 verbosity = 'high',                              ! level of verbosity of the output file
 prefix = 'Ag3SBr',                               ! prefix for the output files
/

&SYSTEM
 ibrav = 0,                                       ! type of bravais-lattice, if 0 the lattice is provided in CELL_PARAMETERS
 nat = 5,                                         ! number of atoms in the unit cell
 ntyp = 3,                                        ! number of types of atoms in the unit cell
 ecutwfc = 48.0,                                  ! kinetic energy cutoff for wavefunctions (in Ry)
 occupations = 'fixed',                           ! electronic occupations
 smearing = 'gaussian',                           ! type of smearing
 input_dft = 'pbesol',                            ! type of exchange-correlation functional
/

&ELECTRONS
 conv_thr = 1.0e-8,                               ! convergence threshold for the electronic loop
/

ATOMIC_SPECIES                                    ! atomic species, atomic mass, and name of the pseudopotential file
 Ag    107.8682    Ag_ONCV_PBE-1.0.oncvpsp.upf
 S     32.065      s_pbe_v1.4.uspp.F.UPF
 Br    79.904      br_pbe_v1.4.uspp.F.UPF

ATOMIC_POSITIONS (crystal)                        ! atomic positions for each atomic species
 Ag    0.5  0.5  0.0
 Ag    0.5  0.0  0.5
 Ag    0.0  0.5  0.5
 S     0.5  0.5  0.5
 Br    0.0  0.0  0.0

K_POINTS (automatic)                              ! number of k-points
 8 8 8 0 0 0

CELL_PARAMETERS (angstrom)                        ! parameters of the cell
 4.7930523    0.0000000    0.0000000
 0.0000000    4.7930523    0.0000000
 0.0000000    0.0000000    4.7930523
