--
&inputph
  prefix   = 'SnSe'
  epsil    = .false.
  fildyn   = 'SnSe.dyn'
  ldisp    = .true.
  fildvscf = 'dvscf'
  nq1=10,
  nq2=1,
  nq3=10,
  tr2_ph   =  1.0d-12
 /
