&INPUT
    fildyn = 'SnSe.dyn'             ! Input dynamical matrix file from ph.x
    flfrc = 'SnSe.fc'               ! Output file for force constants
/