&CONTROL
 calculation = 'scf',                             ! type of calculation
 restart_mode = 'from_scratch',                   ! start from zero or restart a calculation
 outdir = './',                                   ! name of the directory where the output files are found
 pseudo_dir = './pseudo',                         ! name of the directory containing the pseudopotential files
 verbosity = 'high',                              ! level of verbosity of the output file
 prefix = 'SnSe',                                 ! prefix for the output files
/

&SYSTEM
 ibrav = 0,                                       ! type of bravais-lattice, if 0 the lattice is provided in CELL_PARAMETERS
 nat = 8,                                         ! number of atoms in the unit cell
 ntyp = 2,                                        ! number of types of atoms in the unit cell
 ecutwfc = 48.0,                                  ! kinetic energy cutoff for wavefunctions (in Ry)
 occupations = 'fixed',                           ! electronic occupations
 smearing = 'gaussian',                           ! type of smearing
 input_dft = 'pbesol',                            ! type of exchange-correlation functional
/

&ELECTRONS
 conv_thr = 1.0e-8,                               ! convergence threshold for the electronic loop
/

ATOMIC_SPECIES                                    ! atomic species, atomic mass, and name of the pseudopotential file
 Sn    118.71      Sn_pbe_v1.uspp.F.UPF
 Se    78.96       Se_pbe_v1.uspp.F.UPF

ATOMIC_POSITIONS (crystal)                        ! atomic positions for each atomic species
 Sn            0.5000000000        0.1615918855        0.2500000000
 Sn            0.0000000000        0.0562482996        0.7500000000
 Sn            0.0000000000        0.3733039283        0.2500000000
 Sn            0.5000000000        0.2679566096        0.7500000000
 Se            0.5000000000        0.0606682405        0.2500000000
 Se            0.0000000000        0.1564182466        0.7500000000
 Se            0.0000000000        0.2731343457        0.2500000000
 Se            0.5000000000        0.3688813702        0.7500000000

K_POINTS (automatic)                              ! number of k-points
 10 1 10 0 0 0

CELL_PARAMETERS (angstrom)                        ! parameters of the cell
   4.220420535   0.000000000   0.000000000
   0.000000000  26.895774238   0.000000000
   0.000000000   0.000000000   4.220836748